GPU_version/outputs/c102.out
Total number of lines in the file: 110
Total number of nodes including depot: 101
Customer 1: (40, 50), Demand: 0, Time Window: [0, 1236], Service Time: 0
Customer 2: (45, 68), Demand: 10, Time Window: [0, 1127], Service Time: 90
Customer 3: (45, 70), Demand: 30, Time Window: [0, 1125], Service Time: 90
Customer 4: (42, 66), Demand: 10, Time Window: [0, 1129], Service Time: 90
Customer 5: (42, 68), Demand: 10, Time Window: [727, 782], Service Time: 90
calling MST kernel
Post Processing Route
Post 2 opt Processing Route
2-opt between 69 and 72 improved cost from 1776.25 to 1774.71
Elapsed time: 0.620605 seconds
Final Route: 
Route #1: 20 21 22 
Route #2: 25 27 29 34 36 
Route #3: 39 
Route #4: 38 37 
Route #5: 33 
Route #6: 32 31 35 
Route #7: 24 23 
Route #8: 10 11 
Route #9: 13 17 18 19 15 16 14 12 
Route #10: 8 9 6 4 1 2 98 
Route #11: 91 89 
Route #12: 87 86 88 85 
Route #13: 84 83 82 
Route #14: 81 78 76 71 70 73 77 79 80 
Route #15: 90 96 95 94 93 
Route #16: 92 97 100 99 3 7 5 
Route #17: 75 26 28 
Route #18: 30 
Route #19: 67 65 63 62 74 61 64 68 
Route #20: 55 54 53 56 58 60 
Route #21: 57 59 40 
Route #22: 41 
Route #23: 42 44 45 48 50 
Route #24: 51 
Route #25: 46 47 
Route #26: 49 52 
Route #27: 43 72 66 69 
Route #28: Total Distance: 1776.25
Final route is valid
